(declare-const X String)
; www\x2Ewebcruiser\x2Eccgot
(assert (not (str.in_re X (str.to_re "www.webcruiser.ccgot\u{a}"))))
; url=\swww\x2Ealfacleaner\x2Ecom\d+Host\x3A\x2Fproducts\x2Fspyblocs\x2F
(assert (not (str.in_re X (re.++ (str.to_re "url=") (re.union (str.to_re " ") (str.to_re "\u{9}") (str.to_re "\u{a}") (str.to_re "\u{c}") (str.to_re "\u{d}")) (str.to_re "www.alfacleaner.com") (re.+ (re.range "0" "9")) (str.to_re "Host:/products/spyblocs/\u{13}\u{a}")))))
; /filename=[^\n]*\x2ejpx/i
(assert (str.in_re X (re.++ (str.to_re "/filename=") (re.* (re.comp (str.to_re "\u{a}"))) (str.to_re ".jpx/i\u{a}"))))
; /RegExp?\x23.{0,5}\x28\x3f[^\x29]{0,4}i.*?\x28\x3f\x2d[^\x29]{0,4}i.{0,50}\x7c\x7c/smi
(assert (str.in_re X (re.++ (str.to_re "/RegEx") (re.opt (str.to_re "p")) (str.to_re "#") ((_ re.loop 0 5) re.allchar) (str.to_re "(?") ((_ re.loop 0 4) (re.comp (str.to_re ")"))) (str.to_re "i") (re.* re.allchar) (str.to_re "(?-") ((_ re.loop 0 4) (re.comp (str.to_re ")"))) (str.to_re "i") ((_ re.loop 0 50) re.allchar) (str.to_re "||/smi\u{a}"))))
(check-sat)
